c Generated after 1 tries
c Graph with 160 nodes and 1150 edges, Max edges:12720
c generated from an undirected graph
c to solve unweighted MaxCut
p cnf 160 2300
1 49 0
-1 -49 0
1 59 0
-1 -59 0
1 63 0
-1 -63 0
1 75 0
-1 -75 0
1 79 0
-1 -79 0
1 92 0
-1 -92 0
1 101 0
-1 -101 0
1 109 0
-1 -109 0
1 112 0
-1 -112 0
1 113 0
-1 -113 0
1 115 0
-1 -115 0
1 130 0
-1 -130 0
1 131 0
-1 -131 0
1 145 0
-1 -145 0
1 148 0
-1 -148 0
1 154 0
-1 -154 0
1 156 0
-1 -156 0
2 4 0
-2 -4 0
2 9 0
-2 -9 0
2 47 0
-2 -47 0
2 59 0
-2 -59 0
2 70 0
-2 -70 0
2 72 0
-2 -72 0
2 80 0
-2 -80 0
2 82 0
-2 -82 0
2 99 0
-2 -99 0
2 102 0
-2 -102 0
2 138 0
-2 -138 0
3 21 0
-3 -21 0
3 72 0
-3 -72 0
3 75 0
-3 -75 0
3 89 0
-3 -89 0
3 98 0
-3 -98 0
3 103 0
-3 -103 0
3 123 0
-3 -123 0
3 128 0
-3 -128 0
3 138 0
-3 -138 0
3 141 0
-3 -141 0
3 142 0
-3 -142 0
4 23 0
-4 -23 0
4 26 0
-4 -26 0
4 27 0
-4 -27 0
4 29 0
-4 -29 0
4 46 0
-4 -46 0
4 48 0
-4 -48 0
4 61 0
-4 -61 0
4 78 0
-4 -78 0
4 79 0
-4 -79 0
4 90 0
-4 -90 0
4 93 0
-4 -93 0
4 123 0
-4 -123 0
4 129 0
-4 -129 0
4 145 0
-4 -145 0
5 11 0
-5 -11 0
5 12 0
-5 -12 0
5 26 0
-5 -26 0
5 52 0
-5 -52 0
5 57 0
-5 -57 0
5 61 0
-5 -61 0
5 63 0
-5 -63 0
5 65 0
-5 -65 0
5 75 0
-5 -75 0
5 82 0
-5 -82 0
5 92 0
-5 -92 0
5 99 0
-5 -99 0
5 104 0
-5 -104 0
5 106 0
-5 -106 0
5 117 0
-5 -117 0
5 121 0
-5 -121 0
5 122 0
-5 -122 0
5 125 0
-5 -125 0
5 144 0
-5 -144 0
5 145 0
-5 -145 0
5 154 0
-5 -154 0
5 157 0
-5 -157 0
5 158 0
-5 -158 0
6 11 0
-6 -11 0
6 36 0
-6 -36 0
6 41 0
-6 -41 0
6 43 0
-6 -43 0
6 57 0
-6 -57 0
6 64 0
-6 -64 0
6 71 0
-6 -71 0
6 84 0
-6 -84 0
6 97 0
-6 -97 0
6 124 0
-6 -124 0
6 145 0
-6 -145 0
7 24 0
-7 -24 0
7 31 0
-7 -31 0
7 45 0
-7 -45 0
7 50 0
-7 -50 0
7 55 0
-7 -55 0
7 60 0
-7 -60 0
7 65 0
-7 -65 0
7 87 0
-7 -87 0
7 103 0
-7 -103 0
7 132 0
-7 -132 0
7 139 0
-7 -139 0
7 160 0
-7 -160 0
8 15 0
-8 -15 0
8 41 0
-8 -41 0
8 43 0
-8 -43 0
8 49 0
-8 -49 0
8 61 0
-8 -61 0
8 65 0
-8 -65 0
8 77 0
-8 -77 0
8 78 0
-8 -78 0
8 87 0
-8 -87 0
8 96 0
-8 -96 0
8 99 0
-8 -99 0
8 105 0
-8 -105 0
8 108 0
-8 -108 0
8 109 0
-8 -109 0
8 110 0
-8 -110 0
8 123 0
-8 -123 0
8 141 0
-8 -141 0
8 152 0
-8 -152 0
9 12 0
-9 -12 0
9 13 0
-9 -13 0
9 17 0
-9 -17 0
9 42 0
-9 -42 0
9 45 0
-9 -45 0
9 52 0
-9 -52 0
9 54 0
-9 -54 0
9 56 0
-9 -56 0
9 65 0
-9 -65 0
9 70 0
-9 -70 0
9 83 0
-9 -83 0
9 89 0
-9 -89 0
9 95 0
-9 -95 0
9 113 0
-9 -113 0
9 127 0
-9 -127 0
9 128 0
-9 -128 0
9 140 0
-9 -140 0
9 141 0
-9 -141 0
9 146 0
-9 -146 0
10 18 0
-10 -18 0
10 60 0
-10 -60 0
10 110 0
-10 -110 0
10 115 0
-10 -115 0
10 124 0
-10 -124 0
10 125 0
-10 -125 0
10 152 0
-10 -152 0
11 14 0
-11 -14 0
11 23 0
-11 -23 0
11 54 0
-11 -54 0
11 59 0
-11 -59 0
11 64 0
-11 -64 0
11 75 0
-11 -75 0
11 77 0
-11 -77 0
11 89 0
-11 -89 0
11 96 0
-11 -96 0
11 111 0
-11 -111 0
11 114 0
-11 -114 0
11 117 0
-11 -117 0
11 123 0
-11 -123 0
11 137 0
-11 -137 0
11 147 0
-11 -147 0
11 148 0
-11 -148 0
12 18 0
-12 -18 0
12 19 0
-12 -19 0
12 24 0
-12 -24 0
12 26 0
-12 -26 0
12 27 0
-12 -27 0
12 40 0
-12 -40 0
12 58 0
-12 -58 0
12 120 0
-12 -120 0
12 121 0
-12 -121 0
12 125 0
-12 -125 0
12 133 0
-12 -133 0
12 138 0
-12 -138 0
12 145 0
-12 -145 0
12 147 0
-12 -147 0
12 155 0
-12 -155 0
12 156 0
-12 -156 0
13 26 0
-13 -26 0
13 37 0
-13 -37 0
13 39 0
-13 -39 0
13 42 0
-13 -42 0
13 53 0
-13 -53 0
13 59 0
-13 -59 0
13 71 0
-13 -71 0
13 87 0
-13 -87 0
13 90 0
-13 -90 0
13 91 0
-13 -91 0
13 103 0
-13 -103 0
13 107 0
-13 -107 0
13 123 0
-13 -123 0
13 154 0
-13 -154 0
13 159 0
-13 -159 0
14 25 0
-14 -25 0
14 36 0
-14 -36 0
14 44 0
-14 -44 0
14 75 0
-14 -75 0
14 76 0
-14 -76 0
14 82 0
-14 -82 0
14 92 0
-14 -92 0
14 93 0
-14 -93 0
14 96 0
-14 -96 0
14 109 0
-14 -109 0
14 112 0
-14 -112 0
14 120 0
-14 -120 0
14 150 0
-14 -150 0
14 154 0
-14 -154 0
14 157 0
-14 -157 0
14 158 0
-14 -158 0
15 19 0
-15 -19 0
15 22 0
-15 -22 0
15 25 0
-15 -25 0
15 29 0
-15 -29 0
15 37 0
-15 -37 0
15 43 0
-15 -43 0
15 80 0
-15 -80 0
15 92 0
-15 -92 0
15 93 0
-15 -93 0
15 94 0
-15 -94 0
15 103 0
-15 -103 0
15 104 0
-15 -104 0
15 105 0
-15 -105 0
15 107 0
-15 -107 0
15 118 0
-15 -118 0
15 119 0
-15 -119 0
15 124 0
-15 -124 0
15 126 0
-15 -126 0
15 132 0
-15 -132 0
15 138 0
-15 -138 0
15 146 0
-15 -146 0
15 155 0
-15 -155 0
16 28 0
-16 -28 0
16 34 0
-16 -34 0
16 36 0
-16 -36 0
16 48 0
-16 -48 0
16 61 0
-16 -61 0
16 65 0
-16 -65 0
16 75 0
-16 -75 0
16 85 0
-16 -85 0
16 86 0
-16 -86 0
16 96 0
-16 -96 0
16 114 0
-16 -114 0
16 119 0
-16 -119 0
16 121 0
-16 -121 0
16 122 0
-16 -122 0
16 130 0
-16 -130 0
16 132 0
-16 -132 0
17 26 0
-17 -26 0
17 30 0
-17 -30 0
17 31 0
-17 -31 0
17 44 0
-17 -44 0
17 45 0
-17 -45 0
17 52 0
-17 -52 0
17 59 0
-17 -59 0
17 70 0
-17 -70 0
17 75 0
-17 -75 0
17 77 0
-17 -77 0
17 103 0
-17 -103 0
17 122 0
-17 -122 0
17 124 0
-17 -124 0
17 133 0
-17 -133 0
17 159 0
-17 -159 0
18 48 0
-18 -48 0
18 88 0
-18 -88 0
18 108 0
-18 -108 0
18 142 0
-18 -142 0
19 41 0
-19 -41 0
19 44 0
-19 -44 0
19 49 0
-19 -49 0
19 57 0
-19 -57 0
19 73 0
-19 -73 0
19 74 0
-19 -74 0
19 76 0
-19 -76 0
19 96 0
-19 -96 0
19 100 0
-19 -100 0
19 119 0
-19 -119 0
19 122 0
-19 -122 0
19 124 0
-19 -124 0
19 133 0
-19 -133 0
19 145 0
-19 -145 0
19 149 0
-19 -149 0
19 150 0
-19 -150 0
19 153 0
-19 -153 0
20 31 0
-20 -31 0
20 39 0
-20 -39 0
20 78 0
-20 -78 0
20 79 0
-20 -79 0
20 94 0
-20 -94 0
20 95 0
-20 -95 0
20 96 0
-20 -96 0
20 139 0
-20 -139 0
20 159 0
-20 -159 0
21 26 0
-21 -26 0
21 37 0
-21 -37 0
21 57 0
-21 -57 0
21 59 0
-21 -59 0
21 65 0
-21 -65 0
21 76 0
-21 -76 0
21 79 0
-21 -79 0
21 89 0
-21 -89 0
21 96 0
-21 -96 0
21 116 0
-21 -116 0
22 30 0
-22 -30 0
22 41 0
-22 -41 0
22 57 0
-22 -57 0
22 63 0
-22 -63 0
22 66 0
-22 -66 0
22 79 0
-22 -79 0
22 83 0
-22 -83 0
22 87 0
-22 -87 0
22 102 0
-22 -102 0
22 103 0
-22 -103 0
22 115 0
-22 -115 0
22 117 0
-22 -117 0
22 121 0
-22 -121 0
22 125 0
-22 -125 0
22 144 0
-22 -144 0
22 149 0
-22 -149 0
23 48 0
-23 -48 0
23 55 0
-23 -55 0
23 100 0
-23 -100 0
23 101 0
-23 -101 0
23 104 0
-23 -104 0
23 126 0
-23 -126 0
23 138 0
-23 -138 0
23 154 0
-23 -154 0
23 159 0
-23 -159 0
24 89 0
-24 -89 0
24 99 0
-24 -99 0
24 147 0
-24 -147 0
24 148 0
-24 -148 0
25 27 0
-25 -27 0
25 31 0
-25 -31 0
25 41 0
-25 -41 0
25 54 0
-25 -54 0
25 57 0
-25 -57 0
25 66 0
-25 -66 0
25 67 0
-25 -67 0
25 70 0
-25 -70 0
25 93 0
-25 -93 0
25 95 0
-25 -95 0
25 123 0
-25 -123 0
25 127 0
-25 -127 0
25 131 0
-25 -131 0
25 147 0
-25 -147 0
26 31 0
-26 -31 0
26 36 0
-26 -36 0
26 49 0
-26 -49 0
26 56 0
-26 -56 0
26 60 0
-26 -60 0
26 83 0
-26 -83 0
26 89 0
-26 -89 0
26 92 0
-26 -92 0
26 93 0
-26 -93 0
26 110 0
-26 -110 0
26 114 0
-26 -114 0
26 116 0
-26 -116 0
26 119 0
-26 -119 0
26 142 0
-26 -142 0
26 149 0
-26 -149 0
27 38 0
-27 -38 0
27 42 0
-27 -42 0
27 68 0
-27 -68 0
27 71 0
-27 -71 0
27 80 0
-27 -80 0
27 110 0
-27 -110 0
27 120 0
-27 -120 0
27 137 0
-27 -137 0
27 147 0
-27 -147 0
27 148 0
-27 -148 0
27 150 0
-27 -150 0
28 33 0
-28 -33 0
28 42 0
-28 -42 0
28 79 0
-28 -79 0
28 82 0
-28 -82 0
28 92 0
-28 -92 0
28 102 0
-28 -102 0
28 110 0
-28 -110 0
28 119 0
-28 -119 0
28 122 0
-28 -122 0
28 129 0
-28 -129 0
28 157 0
-28 -157 0
28 159 0
-28 -159 0
29 45 0
-29 -45 0
29 51 0
-29 -51 0
29 53 0
-29 -53 0
29 54 0
-29 -54 0
29 62 0
-29 -62 0
29 72 0
-29 -72 0
29 87 0
-29 -87 0
29 123 0
-29 -123 0
29 150 0
-29 -150 0
29 158 0
-29 -158 0
30 32 0
-30 -32 0
30 34 0
-30 -34 0
30 41 0
-30 -41 0
30 67 0
-30 -67 0
30 68 0
-30 -68 0
30 99 0
-30 -99 0
30 101 0
-30 -101 0
30 128 0
-30 -128 0
30 139 0
-30 -139 0
30 143 0
-30 -143 0
31 55 0
-31 -55 0
31 66 0
-31 -66 0
31 71 0
-31 -71 0
31 74 0
-31 -74 0
31 102 0
-31 -102 0
31 105 0
-31 -105 0
31 124 0
-31 -124 0
31 134 0
-31 -134 0
31 142 0
-31 -142 0
32 43 0
-32 -43 0
32 50 0
-32 -50 0
32 53 0
-32 -53 0
32 69 0
-32 -69 0
32 70 0
-32 -70 0
32 73 0
-32 -73 0
32 83 0
-32 -83 0
32 86 0
-32 -86 0
32 88 0
-32 -88 0
32 105 0
-32 -105 0
32 139 0
-32 -139 0
32 144 0
-32 -144 0
32 146 0
-32 -146 0
32 148 0
-32 -148 0
33 37 0
-33 -37 0
33 45 0
-33 -45 0
33 49 0
-33 -49 0
33 54 0
-33 -54 0
33 117 0
-33 -117 0
33 154 0
-33 -154 0
33 159 0
-33 -159 0
34 51 0
-34 -51 0
34 69 0
-34 -69 0
34 70 0
-34 -70 0
34 89 0
-34 -89 0
34 91 0
-34 -91 0
34 115 0
-34 -115 0
34 123 0
-34 -123 0
34 125 0
-34 -125 0
34 136 0
-34 -136 0
34 137 0
-34 -137 0
34 142 0
-34 -142 0
34 145 0
-34 -145 0
34 151 0
-34 -151 0
35 43 0
-35 -43 0
35 51 0
-35 -51 0
35 59 0
-35 -59 0
35 62 0
-35 -62 0
35 80 0
-35 -80 0
35 85 0
-35 -85 0
35 99 0
-35 -99 0
35 102 0
-35 -102 0
35 112 0
-35 -112 0
35 116 0
-35 -116 0
35 119 0
-35 -119 0
35 120 0
-35 -120 0
35 133 0
-35 -133 0
35 140 0
-35 -140 0
35 157 0
-35 -157 0
36 40 0
-36 -40 0
36 42 0
-36 -42 0
36 57 0
-36 -57 0
36 66 0
-36 -66 0
36 70 0
-36 -70 0
36 74 0
-36 -74 0
36 83 0
-36 -83 0
36 90 0
-36 -90 0
36 94 0
-36 -94 0
36 98 0
-36 -98 0
36 152 0
-36 -152 0
36 154 0
-36 -154 0
37 43 0
-37 -43 0
37 46 0
-37 -46 0
37 69 0
-37 -69 0
37 71 0
-37 -71 0
37 111 0
-37 -111 0
37 119 0
-37 -119 0
37 122 0
-37 -122 0
37 136 0
-37 -136 0
37 146 0
-37 -146 0
38 44 0
-38 -44 0
38 45 0
-38 -45 0
38 65 0
-38 -65 0
38 81 0
-38 -81 0
38 105 0
-38 -105 0
38 122 0
-38 -122 0
38 136 0
-38 -136 0
38 139 0
-38 -139 0
38 140 0
-38 -140 0
38 143 0
-38 -143 0
38 153 0
-38 -153 0
39 55 0
-39 -55 0
39 67 0
-39 -67 0
39 71 0
-39 -71 0
39 81 0
-39 -81 0
39 89 0
-39 -89 0
39 108 0
-39 -108 0
39 110 0
-39 -110 0
39 123 0
-39 -123 0
39 124 0
-39 -124 0
39 127 0
-39 -127 0
39 134 0
-39 -134 0
39 152 0
-39 -152 0
39 155 0
-39 -155 0
39 156 0
-39 -156 0
39 160 0
-39 -160 0
40 43 0
-40 -43 0
40 54 0
-40 -54 0
40 60 0
-40 -60 0
40 71 0
-40 -71 0
40 93 0
-40 -93 0
40 96 0
-40 -96 0
40 114 0
-40 -114 0
40 122 0
-40 -122 0
40 139 0
-40 -139 0
40 146 0
-40 -146 0
40 147 0
-40 -147 0
40 154 0
-40 -154 0
41 56 0
-41 -56 0
41 108 0
-41 -108 0
41 129 0
-41 -129 0
41 143 0
-41 -143 0
41 150 0
-41 -150 0
41 155 0
-41 -155 0
42 53 0
-42 -53 0
42 66 0
-42 -66 0
42 70 0
-42 -70 0
42 80 0
-42 -80 0
42 94 0
-42 -94 0
42 109 0
-42 -109 0
42 119 0
-42 -119 0
42 138 0
-42 -138 0
42 159 0
-42 -159 0
43 46 0
-43 -46 0
43 58 0
-43 -58 0
43 91 0
-43 -91 0
43 96 0
-43 -96 0
43 114 0
-43 -114 0
43 118 0
-43 -118 0
43 136 0
-43 -136 0
43 139 0
-43 -139 0
43 153 0
-43 -153 0
43 158 0
-43 -158 0
44 60 0
-44 -60 0
44 61 0
-44 -61 0
44 86 0
-44 -86 0
44 101 0
-44 -101 0
44 108 0
-44 -108 0
44 128 0
-44 -128 0
44 130 0
-44 -130 0
44 139 0
-44 -139 0
45 83 0
-45 -83 0
45 97 0
-45 -97 0
45 115 0
-45 -115 0
45 121 0
-45 -121 0
45 125 0
-45 -125 0
45 126 0
-45 -126 0
45 142 0
-45 -142 0
45 151 0
-45 -151 0
46 54 0
-46 -54 0
46 56 0
-46 -56 0
46 63 0
-46 -63 0
46 86 0
-46 -86 0
46 96 0
-46 -96 0
46 120 0
-46 -120 0
46 121 0
-46 -121 0
46 132 0
-46 -132 0
46 136 0
-46 -136 0
46 140 0
-46 -140 0
46 154 0
-46 -154 0
46 159 0
-46 -159 0
47 58 0
-47 -58 0
47 61 0
-47 -61 0
47 67 0
-47 -67 0
47 70 0
-47 -70 0
47 73 0
-47 -73 0
47 121 0
-47 -121 0
47 125 0
-47 -125 0
47 127 0
-47 -127 0
47 133 0
-47 -133 0
47 142 0
-47 -142 0
47 158 0
-47 -158 0
48 54 0
-48 -54 0
48 68 0
-48 -68 0
48 78 0
-48 -78 0
48 82 0
-48 -82 0
48 85 0
-48 -85 0
48 99 0
-48 -99 0
48 107 0
-48 -107 0
48 147 0
-48 -147 0
48 149 0
-48 -149 0
48 155 0
-48 -155 0
49 59 0
-49 -59 0
49 73 0
-49 -73 0
49 75 0
-49 -75 0
49 83 0
-49 -83 0
49 90 0
-49 -90 0
49 114 0
-49 -114 0
49 116 0
-49 -116 0
49 129 0
-49 -129 0
49 130 0
-49 -130 0
49 132 0
-49 -132 0
49 137 0
-49 -137 0
50 51 0
-50 -51 0
50 55 0
-50 -55 0
50 75 0
-50 -75 0
50 85 0
-50 -85 0
50 88 0
-50 -88 0
50 89 0
-50 -89 0
50 91 0
-50 -91 0
50 95 0
-50 -95 0
50 100 0
-50 -100 0
50 103 0
-50 -103 0
50 108 0
-50 -108 0
50 117 0
-50 -117 0
50 118 0
-50 -118 0
50 123 0
-50 -123 0
50 126 0
-50 -126 0
50 131 0
-50 -131 0
50 135 0
-50 -135 0
50 140 0
-50 -140 0
50 150 0
-50 -150 0
50 155 0
-50 -155 0
50 158 0
-50 -158 0
51 59 0
-51 -59 0
51 60 0
-51 -60 0
51 75 0
-51 -75 0
51 79 0
-51 -79 0
51 80 0
-51 -80 0
51 82 0
-51 -82 0
51 91 0
-51 -91 0
51 94 0
-51 -94 0
51 95 0
-51 -95 0
51 107 0
-51 -107 0
51 126 0
-51 -126 0
51 129 0
-51 -129 0
51 142 0
-51 -142 0
51 150 0
-51 -150 0
51 153 0
-51 -153 0
51 158 0
-51 -158 0
51 160 0
-51 -160 0
52 63 0
-52 -63 0
52 70 0
-52 -70 0
52 75 0
-52 -75 0
52 76 0
-52 -76 0
52 78 0
-52 -78 0
52 102 0
-52 -102 0
52 103 0
-52 -103 0
52 113 0
-52 -113 0
52 125 0
-52 -125 0
52 126 0
-52 -126 0
52 135 0
-52 -135 0
52 145 0
-52 -145 0
52 149 0
-52 -149 0
52 150 0
-52 -150 0
53 65 0
-53 -65 0
53 70 0
-53 -70 0
53 80 0
-53 -80 0
53 93 0
-53 -93 0
53 103 0
-53 -103 0
53 104 0
-53 -104 0
53 117 0
-53 -117 0
53 127 0
-53 -127 0
53 128 0
-53 -128 0
53 136 0
-53 -136 0
53 137 0
-53 -137 0
53 153 0
-53 -153 0
53 154 0
-53 -154 0
54 59 0
-54 -59 0
54 65 0
-54 -65 0
54 76 0
-54 -76 0
54 81 0
-54 -81 0
54 89 0
-54 -89 0
54 92 0
-54 -92 0
54 95 0
-54 -95 0
54 108 0
-54 -108 0
54 110 0
-54 -110 0
54 138 0
-54 -138 0
54 152 0
-54 -152 0
55 63 0
-55 -63 0
55 74 0
-55 -74 0
55 93 0
-55 -93 0
55 100 0
-55 -100 0
55 102 0
-55 -102 0
55 111 0
-55 -111 0
55 112 0
-55 -112 0
55 122 0
-55 -122 0
55 131 0
-55 -131 0
55 155 0
-55 -155 0
55 159 0
-55 -159 0
56 65 0
-56 -65 0
56 71 0
-56 -71 0
56 88 0
-56 -88 0
56 91 0
-56 -91 0
56 112 0
-56 -112 0
56 113 0
-56 -113 0
56 116 0
-56 -116 0
56 152 0
-56 -152 0
56 156 0
-56 -156 0
57 59 0
-57 -59 0
57 60 0
-57 -60 0
57 61 0
-57 -61 0
57 72 0
-57 -72 0
57 82 0
-57 -82 0
57 91 0
-57 -91 0
57 110 0
-57 -110 0
57 114 0
-57 -114 0
57 122 0
-57 -122 0
57 139 0
-57 -139 0
57 142 0
-57 -142 0
57 144 0
-57 -144 0
57 148 0
-57 -148 0
57 160 0
-57 -160 0
58 61 0
-58 -61 0
58 73 0
-58 -73 0
59 63 0
-59 -63 0
59 84 0
-59 -84 0
59 87 0
-59 -87 0
59 90 0
-59 -90 0
59 92 0
-59 -92 0
59 94 0
-59 -94 0
59 129 0
-59 -129 0
59 134 0
-59 -134 0
60 69 0
-60 -69 0
60 72 0
-60 -72 0
60 97 0
-60 -97 0
60 115 0
-60 -115 0
60 116 0
-60 -116 0
60 146 0
-60 -146 0
61 81 0
-61 -81 0
61 89 0
-61 -89 0
61 93 0
-61 -93 0
61 104 0
-61 -104 0
61 109 0
-61 -109 0
61 117 0
-61 -117 0
61 119 0
-61 -119 0
61 127 0
-61 -127 0
61 147 0
-61 -147 0
61 149 0
-61 -149 0
62 65 0
-62 -65 0
62 74 0
-62 -74 0
62 76 0
-62 -76 0
62 83 0
-62 -83 0
62 84 0
-62 -84 0
62 102 0
-62 -102 0
62 108 0
-62 -108 0
62 117 0
-62 -117 0
62 121 0
-62 -121 0
62 128 0
-62 -128 0
62 129 0
-62 -129 0
62 132 0
-62 -132 0
62 136 0
-62 -136 0
62 159 0
-62 -159 0
62 160 0
-62 -160 0
63 99 0
-63 -99 0
63 105 0
-63 -105 0
63 106 0
-63 -106 0
63 134 0
-63 -134 0
63 137 0
-63 -137 0
63 152 0
-63 -152 0
63 153 0
-63 -153 0
63 158 0
-63 -158 0
64 79 0
-64 -79 0
64 95 0
-64 -95 0
64 100 0
-64 -100 0
64 117 0
-64 -117 0
64 131 0
-64 -131 0
64 134 0
-64 -134 0
64 150 0
-64 -150 0
65 87 0
-65 -87 0
65 112 0
-65 -112 0
65 114 0
-65 -114 0
65 119 0
-65 -119 0
65 124 0
-65 -124 0
66 72 0
-66 -72 0
66 90 0
-66 -90 0
66 94 0
-66 -94 0
66 102 0
-66 -102 0
66 129 0
-66 -129 0
66 157 0
-66 -157 0
66 159 0
-66 -159 0
67 70 0
-67 -70 0
67 96 0
-67 -96 0
67 99 0
-67 -99 0
67 102 0
-67 -102 0
67 134 0
-67 -134 0
67 135 0
-67 -135 0
67 147 0
-67 -147 0
68 79 0
-68 -79 0
68 88 0
-68 -88 0
68 113 0
-68 -113 0
68 119 0
-68 -119 0
68 134 0
-68 -134 0
69 78 0
-69 -78 0
69 90 0
-69 -90 0
69 113 0
-69 -113 0
69 122 0
-69 -122 0
69 137 0
-69 -137 0
69 157 0
-69 -157 0
69 159 0
-69 -159 0
70 85 0
-70 -85 0
70 108 0
-70 -108 0
70 112 0
-70 -112 0
70 119 0
-70 -119 0
70 121 0
-70 -121 0
70 125 0
-70 -125 0
70 138 0
-70 -138 0
70 139 0
-70 -139 0
70 144 0
-70 -144 0
70 146 0
-70 -146 0
70 160 0
-70 -160 0
71 78 0
-71 -78 0
71 79 0
-71 -79 0
71 81 0
-71 -81 0
71 90 0
-71 -90 0
71 101 0
-71 -101 0
71 102 0
-71 -102 0
71 115 0
-71 -115 0
71 121 0
-71 -121 0
71 147 0
-71 -147 0
71 150 0
-71 -150 0
72 88 0
-72 -88 0
72 107 0
-72 -107 0
72 109 0
-72 -109 0
72 123 0
-72 -123 0
72 125 0
-72 -125 0
72 126 0
-72 -126 0
72 129 0
-72 -129 0
72 139 0
-72 -139 0
72 149 0
-72 -149 0
72 160 0
-72 -160 0
73 80 0
-73 -80 0
73 85 0
-73 -85 0
73 86 0
-73 -86 0
73 96 0
-73 -96 0
73 106 0
-73 -106 0
73 122 0
-73 -122 0
73 130 0
-73 -130 0
73 135 0
-73 -135 0
73 143 0
-73 -143 0
73 149 0
-73 -149 0
73 152 0
-73 -152 0
73 159 0
-73 -159 0
74 88 0
-74 -88 0
74 118 0
-74 -118 0
74 122 0
-74 -122 0
74 124 0
-74 -124 0
74 148 0
-74 -148 0
75 103 0
-75 -103 0
75 121 0
-75 -121 0
75 131 0
-75 -131 0
76 78 0
-76 -78 0
76 85 0
-76 -85 0
76 120 0
-76 -120 0
76 145 0
-76 -145 0
76 158 0
-76 -158 0
77 90 0
-77 -90 0
77 100 0
-77 -100 0
77 110 0
-77 -110 0
77 136 0
-77 -136 0
77 143 0
-77 -143 0
78 138 0
-78 -138 0
79 83 0
-79 -83 0
79 97 0
-79 -97 0
79 99 0
-79 -99 0
79 122 0
-79 -122 0
79 125 0
-79 -125 0
79 128 0
-79 -128 0
79 143 0
-79 -143 0
79 150 0
-79 -150 0
79 151 0
-79 -151 0
79 156 0
-79 -156 0
80 91 0
-80 -91 0
80 96 0
-80 -96 0
80 109 0
-80 -109 0
80 118 0
-80 -118 0
81 109 0
-81 -109 0
81 113 0
-81 -113 0
81 128 0
-81 -128 0
81 144 0
-81 -144 0
81 154 0
-81 -154 0
82 142 0
-82 -142 0
83 89 0
-83 -89 0
83 92 0
-83 -92 0
83 99 0
-83 -99 0
83 129 0
-83 -129 0
83 147 0
-83 -147 0
83 150 0
-83 -150 0
83 156 0
-83 -156 0
84 124 0
-84 -124 0
84 139 0
-84 -139 0
84 143 0
-84 -143 0
84 153 0
-84 -153 0
84 154 0
-84 -154 0
85 87 0
-85 -87 0
85 91 0
-85 -91 0
85 97 0
-85 -97 0
85 105 0
-85 -105 0
85 114 0
-85 -114 0
85 121 0
-85 -121 0
85 159 0
-85 -159 0
86 87 0
-86 -87 0
86 94 0
-86 -94 0
86 114 0
-86 -114 0
86 115 0
-86 -115 0
86 138 0
-86 -138 0
86 151 0
-86 -151 0
87 103 0
-87 -103 0
87 108 0
-87 -108 0
87 145 0
-87 -145 0
87 147 0
-87 -147 0
87 153 0
-87 -153 0
87 158 0
-87 -158 0
88 96 0
-88 -96 0
88 114 0
-88 -114 0
88 129 0
-88 -129 0
88 139 0
-88 -139 0
88 144 0
-88 -144 0
88 145 0
-88 -145 0
89 106 0
-89 -106 0
89 121 0
-89 -121 0
89 125 0
-89 -125 0
89 128 0
-89 -128 0
89 145 0
-89 -145 0
90 115 0
-90 -115 0
90 116 0
-90 -116 0
90 118 0
-90 -118 0
90 121 0
-90 -121 0
90 127 0
-90 -127 0
90 137 0
-90 -137 0
90 138 0
-90 -138 0
90 148 0
-90 -148 0
90 149 0
-90 -149 0
90 158 0
-90 -158 0
91 94 0
-91 -94 0
91 107 0
-91 -107 0
91 129 0
-91 -129 0
91 138 0
-91 -138 0
91 144 0
-91 -144 0
91 145 0
-91 -145 0
91 146 0
-91 -146 0
91 159 0
-91 -159 0
91 160 0
-91 -160 0
92 95 0
-92 -95 0
92 104 0
-92 -104 0
92 118 0
-92 -118 0
92 132 0
-92 -132 0
92 142 0
-92 -142 0
92 144 0
-92 -144 0
93 114 0
-93 -114 0
93 134 0
-93 -134 0
93 138 0
-93 -138 0
93 143 0
-93 -143 0
93 150 0
-93 -150 0
94 109 0
-94 -109 0
94 120 0
-94 -120 0
94 149 0
-94 -149 0
94 154 0
-94 -154 0
95 96 0
-95 -96 0
95 117 0
-95 -117 0
95 120 0
-95 -120 0
95 159 0
-95 -159 0
96 114 0
-96 -114 0
96 124 0
-96 -124 0
96 126 0
-96 -126 0
96 138 0
-96 -138 0
96 159 0
-96 -159 0
96 160 0
-96 -160 0
97 101 0
-97 -101 0
97 108 0
-97 -108 0
97 119 0
-97 -119 0
97 128 0
-97 -128 0
97 130 0
-97 -130 0
97 131 0
-97 -131 0
97 150 0
-97 -150 0
97 153 0
-97 -153 0
98 103 0
-98 -103 0
98 109 0
-98 -109 0
98 126 0
-98 -126 0
98 153 0
-98 -153 0
98 154 0
-98 -154 0
99 132 0
-99 -132 0
99 134 0
-99 -134 0
99 138 0
-99 -138 0
99 143 0
-99 -143 0
99 145 0
-99 -145 0
99 147 0
-99 -147 0
99 151 0
-99 -151 0
100 112 0
-100 -112 0
100 123 0
-100 -123 0
100 131 0
-100 -131 0
100 142 0
-100 -142 0
101 117 0
-101 -117 0
101 123 0
-101 -123 0
101 139 0
-101 -139 0
101 143 0
-101 -143 0
101 159 0
-101 -159 0
102 114 0
-102 -114 0
102 115 0
-102 -115 0
102 122 0
-102 -122 0
102 133 0
-102 -133 0
102 155 0
-102 -155 0
103 111 0
-103 -111 0
103 118 0
-103 -118 0
103 119 0
-103 -119 0
103 130 0
-103 -130 0
103 132 0
-103 -132 0
103 139 0
-103 -139 0
103 141 0
-103 -141 0
103 145 0
-103 -145 0
103 159 0
-103 -159 0
104 121 0
-104 -121 0
104 127 0
-104 -127 0
104 129 0
-104 -129 0
104 134 0
-104 -134 0
104 141 0
-104 -141 0
104 144 0
-104 -144 0
106 109 0
-106 -109 0
106 111 0
-106 -111 0
106 116 0
-106 -116 0
106 123 0
-106 -123 0
106 126 0
-106 -126 0
106 133 0
-106 -133 0
106 138 0
-106 -138 0
107 109 0
-107 -109 0
107 116 0
-107 -116 0
107 132 0
-107 -132 0
107 140 0
-107 -140 0
107 150 0
-107 -150 0
107 152 0
-107 -152 0
108 115 0
-108 -115 0
108 117 0
-108 -117 0
108 123 0
-108 -123 0
108 134 0
-108 -134 0
108 147 0
-108 -147 0
109 118 0
-109 -118 0
109 136 0
-109 -136 0
109 146 0
-109 -146 0
111 115 0
-111 -115 0
111 120 0
-111 -120 0
111 123 0
-111 -123 0
111 134 0
-111 -134 0
111 138 0
-111 -138 0
111 141 0
-111 -141 0
111 158 0
-111 -158 0
111 159 0
-111 -159 0
112 125 0
-112 -125 0
112 126 0
-112 -126 0
112 160 0
-112 -160 0
113 143 0
-113 -143 0
114 124 0
-114 -124 0
114 126 0
-114 -126 0
114 136 0
-114 -136 0
114 143 0
-114 -143 0
114 147 0
-114 -147 0
114 159 0
-114 -159 0
115 123 0
-115 -123 0
115 132 0
-115 -132 0
115 137 0
-115 -137 0
115 144 0
-115 -144 0
115 147 0
-115 -147 0
115 148 0
-115 -148 0
115 151 0
-115 -151 0
115 152 0
-115 -152 0
115 156 0
-115 -156 0
116 144 0
-116 -144 0
118 121 0
-118 -121 0
118 140 0
-118 -140 0
118 158 0
-118 -158 0
119 125 0
-119 -125 0
119 126 0
-119 -126 0
119 134 0
-119 -134 0
119 148 0
-119 -148 0
120 123 0
-120 -123 0
120 132 0
-120 -132 0
120 142 0
-120 -142 0
120 156 0
-120 -156 0
120 159 0
-120 -159 0
121 125 0
-121 -125 0
121 131 0
-121 -131 0
121 157 0
-121 -157 0
121 160 0
-121 -160 0
123 138 0
-123 -138 0
123 150 0
-123 -150 0
123 154 0
-123 -154 0
124 129 0
-124 -129 0
124 141 0
-124 -141 0
124 153 0
-124 -153 0
125 126 0
-125 -126 0
125 136 0
-125 -136 0
125 145 0
-125 -145 0
125 151 0
-125 -151 0
125 154 0
-125 -154 0
126 141 0
-126 -141 0
126 142 0
-126 -142 0
126 144 0
-126 -144 0
126 149 0
-126 -149 0
127 139 0
-127 -139 0
127 140 0
-127 -140 0
127 146 0
-127 -146 0
127 156 0
-127 -156 0
127 160 0
-127 -160 0
128 146 0
-128 -146 0
128 148 0
-128 -148 0
128 151 0
-128 -151 0
128 160 0
-128 -160 0
129 133 0
-129 -133 0
129 137 0
-129 -137 0
129 152 0
-129 -152 0
129 160 0
-129 -160 0
131 133 0
-131 -133 0
131 135 0
-131 -135 0
131 154 0
-131 -154 0
132 155 0
-132 -155 0
133 151 0
-133 -151 0
133 152 0
-133 -152 0
133 153 0
-133 -153 0
133 157 0
-133 -157 0
134 143 0
-134 -143 0
134 144 0
-134 -144 0
135 156 0
-135 -156 0
136 143 0
-136 -143 0
136 146 0
-136 -146 0
136 153 0
-136 -153 0
136 154 0
-136 -154 0
137 150 0
-137 -150 0
137 160 0
-137 -160 0
138 150 0
-138 -150 0
138 154 0
-138 -154 0
139 140 0
-139 -140 0
139 145 0
-139 -145 0
140 158 0
-140 -158 0
141 149 0
-141 -149 0
142 143 0
-142 -143 0
143 155 0
-143 -155 0
143 159 0
-143 -159 0
145 148 0
-145 -148 0
145 149 0
-145 -149 0
145 151 0
-145 -151 0
145 152 0
-145 -152 0
145 153 0
-145 -153 0
146 150 0
-146 -150 0
146 154 0
-146 -154 0
148 150 0
-148 -150 0
148 158 0
-148 -158 0
150 157 0
-150 -157 0
150 160 0
-150 -160 0
153 154 0
-153 -154 0
153 158 0
-153 -158 0
156 159 0
-156 -159 0
157 159 0
-157 -159 0
